#######################



#######################
Set parameter TimeLimit to value 300
Set parameter SoftMemLimit to value 125
Set parameter MIPFocus to value 3
Set parameter LogFile to value 1003-MIPFocus3-Presolve2-TimeLimit300-k16x240-0.log
Set parameter Presolve to value 2
Using license file /opt/gurobi/gurobi.lic

Gurobi Optimizer version 10.0.3 build v10.0.3rc0 (linux64)
Copyright (c) 2023, Gurobi Optimization, LLC

Read MPS format model from file /miplib2010/k16x240.mps.bz2
Reading time = 0.00 seconds
k16x240: 256 rows, 480 columns, 960 nonzeros

CPU model: Intel(R) Xeon(R) E-2388G CPU @ 3.20GHz, instruction set [SSE2|AVX|AVX2|AVX512]
Thread count: 8 physical cores, 16 logical processors, using up to 16 threads

Optimize a model with 256 rows, 480 columns and 960 nonzeros
Model fingerprint: 0x4e80885f
Variable types: 240 continuous, 240 integer (240 binary)
Coefficient statistics:
  Matrix range     [1e+00, 1e+03]
  Objective range  [1e+00, 1e+03]
  Bounds range     [1e+00, 1e+03]
  RHS range        [4e+00, 4e+02]
Found heuristic solution: objective 23615.000000
Presolve time: 0.00s
Presolved: 256 rows, 480 columns, 960 nonzeros
Variable types: 240 continuous, 240 integer (240 binary)
Root relaxation presolve removed 241 rows and 240 columns
Root relaxation presolved: 15 rows, 240 columns, 450 nonzeros


Root relaxation: objective 2.769838e+03, 16 iterations, 0.00 seconds (0.00 work units)

    Nodes    |    Current Node    |     Objective Bounds      |     Work
 Expl Unexpl |  Obj  Depth IntInf | Incumbent    BestBd   Gap | It/Node Time

     0     0 2769.83800    0   14 23615.0000 2769.83800  88.3%     -    0s
H    0     0                    11359.000000 2769.83800  75.6%     -    0s
H    0     0                    11331.000000 8116.87580  28.4%     -    0s
H    0     0                    11261.000000 8116.87580  27.9%     -    0s
H    0     0                    11240.000000 8116.87580  27.8%     -    0s
H    0     0                    11140.000000 8116.87580  27.1%     -    0s
H    0     0                    11077.000000 8116.87580  26.7%     -    0s
     0     0 8116.87580    0   26 11077.0000 8116.87580  26.7%     -    0s
H    0     0                    11071.000000 8116.87580  26.7%     -    0s
H    0     0                    11001.000000 8654.36127  21.3%     -    0s
     0     0 8777.29693    0   24 11001.0000 8777.29693  20.2%     -    0s
H    0     0                    10949.000000 8777.29693  19.8%     -    0s
     0     0 8886.33905    0   27 10949.0000 8886.33905  18.8%     -    0s
     0     0 8886.33905    0   38 10949.0000 8886.33905  18.8%     -    0s
     0     0 8886.61644    0   37 10949.0000 8886.61644  18.8%     -    0s
     0     0 8897.25059    0   39 10949.0000 8897.25059  18.7%     -    0s
     0     0 8905.33797    0   40 10949.0000 8905.33797  18.7%     -    0s
     0     0 9055.00243    0   36 10949.0000 9055.00243  17.3%     -    0s
H    0     0                    10862.000000 9055.00243  16.6%     -    0s
     0     0 9068.46922    0   36 10862.0000 9068.46922  16.5%     -    0s
     0     0 9100.19995    0   32 10862.0000 9100.19995  16.2%     -    0s
     0     0 9161.62269    0   36 10862.0000 9161.62269  15.7%     -    0s
     0     0 9161.62269    0   36 10862.0000 9161.62269  15.7%     -    0s
H    0     0                    10792.000000 9161.62269  15.1%     -    0s
     0     2 9161.62269    0   36 10792.0000 9161.62269  15.1%     -    0s
H   31    40                    10681.000000 9398.12760  12.0%  99.1    0s
H   37    40                    10678.000000 9410.45696  11.9%   104    0s
H  571   626                    10674.000000 9635.08507  9.73%  40.7    0s
  2738  2282 10556.5314   30   14 10674.0000 10158.2886  4.83%  79.2    5s
 11786  6904 10410.1439   28   23 10674.0000 10409.6838  2.48%  62.6   10s
 31508 11017     cutoff   40      10674.0000 10566.4564  1.01%  45.4   15s

Cutting planes:
  Gomory: 1
  Lift-and-project: 8
  Implied bound: 6
  MIR: 111
  Flow cover: 521
  Flow path: 46
  Zero half: 31
  Network: 17
  Relax-and-lift: 2

Explored 54268 nodes (1822825 simplex iterations) in 17.87 seconds (32.04 work units)
Thread count was 16 (of 16 available processors)

Solution count 10: 10674 10678 10681 ... 11140

Optimal solution found (tolerance 1.00e-04)
Best objective 1.067400000000e+04, best bound 1.067317072490e+04, gap 0.0078%
